##TITLE=Tetrahydrofuran
##JCAMP-DX=4.24
##DATA TYPE=UV/VIS SPECTRUM
##ORIGIN=INSTITUTE OF ENERGY PROBLEMS OF CHEMICAL PHYSICS, RAS and James Klimavicz
##CAS REGISTRY NO=109-99-9
##MOLFORM=C4H8O
##MP=-108.3
##BP=65
##SOURCE REFERENCE=RAS UV No. 21
##$NIST SQUIB=1951PIC/HOE4865-4869
##$NIST SOURCE=TSGMTE
##SPECTROMETER/DATA SYSTEM=Hilger fluorite prism spectrograph
##XUNITS=Wavelength (nm)
##YUNITS=Logarithm epsilon
##XFACTOR=1.000000
##YFACTOR=1.000000
##FIRSTX=220
##LASTX=161
##FIRSTY=2.10189
##MAXX=220
##MINX=161
##MAXY=3.4579
##MINY=-1.25
##NPOINTS=60
##XYPOINTS=(XY..XY)
220,-1.25
219,-1.12
218,-0.93
217,-0.79
216,-0.55
215,-0.37
214,-0.192
213,-0.06
212,0.02
211,0.09
210,0.201
209,0.29
208,0.45
207,0.61
206,0.83
205,1.07
204,1.32
203,1.55
202,1.74
201,1.82
200,1.94
199,2.090459789
198,2.1709225
197,2.34322119
196,2.544157794
195,2.593277189
194,2.654558161
193,2.744158522
192,2.789480851
191,2.816831545
190,2.860395213
189,2.872894885
188,2.876208524
187,2.893518286
186,2.863094688
185,2.84029076
184,2.796505529
183,2.7515916
182,2.712099882
181,2.664990824
180,2.63952929
179,2.676704488
178,2.718473545
177,2.819392317
176,2.950815531
175,3.13036941
174,3.274596542
173,3.407540811
172,3.447467438
171,3.434539344
170,3.3818609
169,3.350917542
168,3.3067695
167,3.260132381
166,3.2154166
165,3.166944444
164,3.070885063
163,2.995758359
162,2.948373806
161,2.915252
##END=
