##TITLE=tris(2,3,5,6-tetramethylphenyl) phosphine oxide
##JCAMP-DX=4.24
##DATA TYPE=UV/VIS SPECTRUM
##ORIGIN=INSTITUTE OF ENERGY PROBLEMS OF CHEMICAL PHYSICS, RAS
##OWNER=INEP CP RAS, NIST OSRD
Collection (C) 2007 copyright by the U.S. Secretary of Commerce
on behalf of the United States of America. All rights reserved.
##CAS REGISTRY NO=54948-03-7
##MOLFORM=C30H39OP
##SOURCE REFERENCE=RAS UV No. 22525
##$NIST SQUIB=1977BOK769
##$NIST SOURCE=TYUGLMTE
##SPECTROMETER/DATA SYSTEM=SF-4A
##XUNITS=Wavelength (nm)
##YUNITS=Logarithm epsilon
##XFACTOR=1.0
##YFACTOR=1.0
##FIRSTX=230.774
##LASTX=310.199
##FIRSTY=4.587
##MAXX=310.199
##MINX=230.774
##MAXY=4.587
##MINY=2.091
##NPOINTS=82
##$REF AUTHOR=Bokanov et aql., A.I.
##$REF JOURNAL=Zhur. Obshchei Khim.
##$REF VOLUME=47
##$REF PAGE=769
##$REF DATE=1977
##XYPOINTS=(XY..XY)
230.774,4.587
231.774,4.513
232.774,4.445
233.774,4.387
234.774,4.340
235.774,4.302
236.774,4.273
237.774,4.248
238.774,4.226
239.774,4.202
240.774,4.175
241.774,4.143
242.774,4.107
243.774,4.070
244.759,4.037
245.759,4.019
246.759,3.991
247.759,3.958
248.759,3.921
249.759,3.881
250.759,3.836
251.759,3.784
252.759,3.723
253.759,3.650
254.759,3.563
255.759,3.463
256.623,3.371
257.623,3.250
258.623,3.160
259.623,3.097
260.623,3.059
261.623,3.042
262.623,3.044
263.623,3.060
264.623,3.086
265.623,3.119
266.623,3.155
267.623,3.190
268.361,3.211
269.361,3.246
270.361,3.283
271.361,3.322
272.361,3.361
273.361,3.399
274.361,3.435
275.361,3.468
276.361,3.499
277.361,3.528
278.361,3.559
279.361,3.594
279.475,3.597
280.475,3.628
281.475,3.664
282.475,3.701
283.475,3.734
284.475,3.762
285.475,3.783
286.475,3.796
287.475,3.802
288.475,3.802
289.340,3.797
290.340,3.786
291.340,3.780
292.340,3.783
293.340,3.793
294.340,3.803
295.340,3.805
296.340,3.789
297.340,3.741
298.331,3.635
299.331,3.535
300.331,3.433
301.331,3.329
302.331,3.224
303.331,3.116
304.331,3.007
305.199,2.914
306.199,2.771
307.199,2.619
308.199,2.456
309.199,2.281
310.199,2.091
##END=
