##TITLE=gama-oxo-1H-indole-3-butanoic acid
##JCAMP-DX=4.24
##DATA TYPE=UV/VIS SPECTRUM
##ORIGIN=INSTITUTE OF ENERGY PROBLEMS OF CHEMICAL PHYSICS, RAS
##OWNER=INEP CP RAS, NIST OSRD
Collection (C) 2007 copyright by the U.S. Secretary of Commerce
on behalf of the United States of America. All rights reserved.
##CAS REGISTRY NO=835-45-0
##MOLFORM=C12H11NO3
##MP=240-241
##SOURCE REFERENCE=RAS UV No. 23476
##$NIST SQUIB=1975KOS659
##$NIST SOURCE=TYUGLMTE
##SPECTROMETER/DATA SYSTEM=unknown
##XUNITS=Wavelength (nm)
##YUNITS=Logarithm epsilon
##XFACTOR=1.0
##YFACTOR=1.0
##FIRSTX=213.55
##LASTX=340.044
##FIRSTY=4.112
##MAXX=340.044
##MINX=213.55
##MAXY=4.134
##MINY=2.116
##NPOINTS=128
##$REF AUTHOR=Kost et at., A.N.
##$REF JOURNAL=Khim. Getesikl. Soedin.
##$REF PAGE=659
##$REF DATE=1975
##XYPOINTS=(XY..XY)
213.550,4.112
214.550,4.134
215.550,4.124
216.550,4.096
217.550,4.061
218.550,4.024
219.550,3.990
220.550,3.962
221.550,3.939
222.550,3.923
223.550,3.911
224.550,3.904
225.550,3.901
226.550,3.900
227.550,3.901
228.550,3.905
229.550,3.912
230.550,3.922
231.550,3.935
232.550,3.954
233.550,3.976
234.550,4.000
235.131,4.012
236.131,4.032
237.131,4.050
238.131,4.064
239.131,4.075
240.131,4.083
241.131,4.087
242.131,4.088
243.131,4.087
244.131,4.082
245.131,4.076
246.131,4.067
247.131,4.057
248.131,4.046
249.131,4.034
250.131,4.022
251.131,4.010
252.131,3.999
253.131,3.988
254.131,3.979
255.131,3.971
256.131,3.965
257.131,3.960
258.131,3.957
259.131,3.955
260.131,3.954
261.131,3.954
262.131,3.953
263.131,3.951
264.104,3.949
265.104,3.939
266.104,3.926
267.104,3.912
268.104,3.900
269.104,3.890
270.104,3.883
271.104,3.879
272.104,3.879
273.104,3.881
274.104,3.887
275.104,3.894
276.104,3.903
277.104,3.913
278.104,3.923
279.104,3.934
280.104,3.945
281.104,3.956
282.104,3.966
283.104,3.976
284.104,3.985
285.104,3.994
286.104,4.003
287.104,4.012
288.104,4.021
289.104,4.030
290.104,4.039
291.104,4.048
292.104,4.057
293.104,4.066
294.104,4.074
295.104,4.081
296.104,4.087
297.104,4.091
298.104,4.093
299.104,4.092
300.104,4.088
301.104,4.082
302.104,4.072
303.104,4.060
304.104,4.047
305.066,4.038
306.066,4.032
307.066,4.023
308.066,4.012
309.066,3.999
310.066,3.984
311.066,3.969
312.066,3.952
313.066,3.934
314.066,3.916
315.066,3.896
316.066,3.876
317.066,3.854
318.066,3.831
319.066,3.806
320.066,3.779
321.066,3.750
322.066,3.719
323.066,3.683
324.066,3.644
325.066,3.601
326.066,3.552
327.066,3.497
328.066,3.435
329.044,3.370
330.044,3.284
331.044,3.201
332.044,3.116
333.044,3.024
334.044,2.920
335.044,2.803
336.044,2.673
337.044,2.532
338.044,2.385
339.044,2.242
340.044,2.116
##END=
