##TITLE=Tetrahydrofuran
##JCAMP-DX=4.24
##DATA TYPE=UV/VIS SPECTRUM
##ORIGIN=INSTITUTE OF ENERGY PROBLEMS OF CHEMICAL PHYSICS, RAS and James Klimavicz
##CAS REGISTRY NO=109-99-9
##MOLFORM=C4H8O
##MP=-108.3
##BP=65
##SOURCE REFERENCE=RAS UV No. 21
##$NIST SQUIB=1951PIC/HOE4865-4869
##$NIST SOURCE=TSGMTE
##SPECTROMETER/DATA SYSTEM=Hilger fluorite prism spectrograph
##XUNITS=Wavelength (nm)
##YUNITS=Logarithm epsilon
##XFACTOR=1.000000
##YFACTOR=1.000000
##FIRSTX=220
##LASTX=161
##FIRSTY=2.10189
##MAXX=220
##MINX=161
##MAXY=3.4579
##MINY=-1.25
##NPOINTS=60
##XYPOINTS=(XY..XY)
161,1.915252
162,1.948373806
163,1.995758359
164,2.070885063
165,2.166944444
166,2.2154166
167,2.260132381
168,2.3067695
169,2.350917542
170,2.3818609
171,2.434539344
172,2.447467438
173,2.407540811
174,2.274596542
175,2.13036941
176,1.950815531
177,1.819392317
178,1.718473545
179,1.676704488
180,1.63952929
181,1.664990824
182,1.712099882
183,1.7515916
184,1.796505529
185,1.84029076
186,1.863094688
187,1.893518286
188,1.876208524
189,1.872894885
190,1.860395213
191,1.816831545
192,1.789480851
193,1.744158522
194,1.654558161
195,1.593277189
196,1.544157794
197,1.34322119
198,1.1709225
199,1.090459789
200,0.94
201,0.82
202,0.74
203,0.55
204,0.32
205,0.07
206,-0.17
207,-0.39
208,-0.55
209,-0.71
210,-0.791
211,-0.91
212,-0.98
213,-1.06
214,-1.192
215,-1.37
216,-1.55
217,-1.79
218,-1.93
219,-2.12
220,-2.25
##END=
