##TITLE=Pyridine, 3-iodo-
##JCAMP-DX=4.24
##DATA TYPE=UV/VIS SPECTRUM
##ORIGIN=INSTITUTE OF ENERGY PROBLEMS OF CHEMICAL PHYSICS, RAS
##OWNER=INEP CP RAS, NIST OSRD
Collection (C) 2007 copyright by the U.S. Secretary of Commerce
on behalf of the United States of America. All rights reserved.
##CAS REGISTRY NO=1120-90-7
##MOLFORM=C5H4IN
##MP=53.5
##SOURCE REFERENCE=RAS UV No. 799
##$NIST SQUIB=1955BRO/MCD3752-3755
##$NIST SOURCE=TSGMTE
##SPECTROMETER/DATA SYSTEM=Beckman DU
##XUNITS=Wavelength (nm)
##YUNITS=Logarithm epsilon
##XFACTOR=1.000000
##YFACTOR=1.000000
##FIRSTX=205.0355
##LASTX=298.7619
##FIRSTY=3.83526
##MAXX=298.762
##MINX=205.036
##MAXY=3.87459
##MINY=3.18155
##NPOINTS=101
##$REF AUTHOR=Brown, H.C.; McDaniel, D.H.
##$REF TITLE=The base strengths and ultraviolet absorption spectra of the 2- and 3-monohalopyridines
##$REF JOURNAL=J. Am. Chem. Soc.
##$REF VOLUME=77
##$REF PAGE=3752-3755
##$REF DATE=1955
##XYPOINTS=(XY..XY)
205.0355,3.835258
205.1425,3.835147
205.2552,3.834999
205.3708,3.834833
205.5768,3.834416
205.8869,3.834396
206.1969,3.834377
206.5070,3.834357
207.6458,3.835499
207.9400,3.837471
208.7870,3.842236
210.5686,3.852969
212.3987,3.865552
213.6111,3.869859
214.6943,3.872518
216.1096,3.874585
218.6521,3.872961
219.7687,3.869478
220.7015,3.864285
221.5722,3.857943
223.1617,3.842468
223.6787,3.836055
224.2253,3.830126
225.2701,3.819489
226.4564,3.800747
227.2517,3.787266
227.6414,3.781018
227.9596,3.776907
229.7381,3.754589
230.4300,3.746917
231.3549,3.739379
232.4625,3.733241
234.6496,3.715224
235.6360,3.710573
237.0943,3.704305
238.3889,3.697959
240.3870,3.682668
241.2342,3.674682
241.9978,3.666210
242.7741,3.656052
244.4920,3.630364
244.7686,3.622128
245.1851,3.612910
245.8688,3.597544
247.1006,3.558710
247.6800,3.540071
248.0370,3.529863
248.4774,3.519732
248.9414,3.501064
249.0481,3.500519
249.1607,3.499935
249.2760,3.499271
249.2760,3.499271
249.5921,3.483053
250.0930,3.467153
250.7103,3.450888
251.3757,3.433466
253.0250,3.382656
253.9664,3.354901
254.4437,3.338617
254.8682,3.325327
256.9853,3.265243
257.5542,3.242393
258.1605,3.225488
259.2505,3.211713
262.0589,3.189354
262.2781,3.186783
262.5002,3.184196
262.7280,3.181591
262.8572,3.181555
264.0679,3.185510
264.6953,3.188318
265.2772,3.192386
268.0390,3.218184
269.0427,3.231113
270.0522,3.243666
271.0646,3.255867
272.8193,3.279926
273.2918,3.289906
274.1115,3.305161
275.4015,3.330552
277.5002,3.366091
278.2026,3.375391
278.7467,3.383965
279.5990,3.398941
281.5509,3.422036
282.4260,3.430947
283.3067,3.439588
284.1903,3.448017
286.2061,3.467563
287.0789,3.468871
288.6014,3.471411
289.4400,3.473085
292.2497,3.462888
293.1107,3.455210
293.9745,3.447305
294.8440,3.439207
297.0439,3.402786
297.6166,3.387769
298.1893,3.372163
298.7619,3.355867
##END=
