##TITLE=Ethyl acetoacetate
##JCAMP-DX=4.24
##DATA TYPE=UV/VIS SPECTRUM
##ORIGIN=INSTITUTE OF ENERGY PROBLEMS OF CHEMICAL PHYSICS, RAS
##OWNER=INEP CP RAS, NIST OSRD
Collection (C) 2007 copyright by the U.S. Secretary of Commerce
on behalf of the United States of America. All rights reserved.
##CAS REGISTRY NO=141-97-9
##MOLFORM=C6H10O3
##MP=-45
##BP=180.8
##SOURCE REFERENCE=RAS UV No. 3015
##$NIST SQUIB=1954DAY2316-2318
##$NIST SOURCE=TSGMTE
##SPECTROMETER/DATA SYSTEM=n.i.g.
##XUNITS=Wavelength (nm)
##YUNITS=Logarithm epsilon
##XFACTOR=1.000000
##YFACTOR=1.000000
##FIRSTX=315.5486
##LASTX=230.2290
##FIRSTY=0.524889
##MAXX=315.549
##MINX=230.229
##MAXY=3.84071
##MINY=0.524889
##NPOINTS=113
##$REF AUTHOR=Dayton, P.G.
##$REF TITLE=L'absorption dans l'ultraviolet moyen de certains esters «beta»-cetoniques et de certains de leurs derives azotes
##$REF JOURNAL=Compt. Rend.
##$REF VOLUME=238
##$REF PAGE=2316-2318
##$REF DATE=1954
##XYPOINTS=(XY..XY)
315.5486,0.524889
315.0252,0.577526
314.4202,0.629032
313.7987,0.693876
313.7987,0.693876
312.8032,0.739517
311.9394,0.786617
311.1794,0.833600
310.4956,0.878901
310.4956,0.878901
308.7628,0.929189
307.6903,0.995267
307.6875,0.991713
307.6846,0.988157
307.6818,0.984604
307.5213,0.961435
305.7085,1.003280
305.7085,1.003280
304.7273,1.011926
303.1762,1.033440
299.7740,1.086271
299.7740,1.086271
297.9503,1.123701
296.1923,1.160436
294.5032,1.196883
292.8861,1.233461
291.3440,1.270572
289.8799,1.308626
288.4964,1.348036
287.1965,1.389209
287.1965,1.389209
285.6023,1.483112
284.3674,1.558322
283.4333,1.617188
282.7456,1.662063
282.2519,1.695297
281.9016,1.719242
281.6452,1.736247
281.4336,1.748663
281.4336,1.748663
281.0516,1.787684
280.6729,1.827592
280.2919,1.868202
279.9036,1.909330
279.5029,1.950794
279.0846,1.992407
278.6439,2.033985
278.1757,2.075345
277.6752,2.116303
277.1378,2.156673
276.5587,2.196272
275.9335,2.234915
275.2577,2.272419
274.5271,2.308598
274.5271,2.308598
274.1256,2.348773
273.7392,2.388950
273.3659,2.429127
273.0038,2.469298
272.6510,2.509460
272.3053,2.549610
271.9649,2.589742
271.6279,2.629855
271.2924,2.669943
270.9566,2.710003
270.6185,2.750031
270.2763,2.790022
269.9282,2.829974
269.5724,2.869882
269.2072,2.909743
268.8307,2.949552
268.4413,2.989306
268.4413,2.989306
268.0200,3.001607
267.4459,3.037314
266.2337,3.127036
266.2337,3.127036
265.8006,3.167610
265.3038,3.208392
264.7473,3.249268
264.1358,3.290119
263.4733,3.330831
262.7644,3.371288
262.0131,3.411372
261.2239,3.450969
260.4009,3.489962
259.5482,3.528235
258.6699,3.565671
257.7700,3.602155
256.8523,3.637571
256.8523,3.637571
255.2887,3.680178
253.7439,3.722784
252.2178,3.765391
252.2178,3.765391
250.9703,3.785061
249.7256,3.804735
248.4886,3.824409
248.4886,3.824409
246.4095,3.835624
244.6014,3.840710
243.0083,3.839993
241.5785,3.833803
240.2627,3.822467
239.0143,3.806314
237.7887,3.785670
236.5432,3.760865
235.2366,3.732226
233.8298,3.700082
233.8298,3.700082
232.5795,3.661094
231.2390,3.617289
230.2290,3.569761
##END=
