##TITLE=tris(2,3,5,6-tetramethylphenyl) phosphine
##JCAMP-DX=4.24
##DATA TYPE=UV/VIS SPECTRUM
##ORIGIN=INSTITUTE OF ENERGY PROBLEMS OF CHEMICAL PHYSICS, RAS
##OWNER=INEP CP RAS, NIST OSRD
Collection (C) 2007 copyright by the U.S. Secretary of Commerce
on behalf of the United States of America. All rights reserved.
##CAS REGISTRY NO=54947-97-6
##MOLFORM=C30H39P
##MP=185-186
##SOURCE REFERENCE=RAS UV No. 22523
##$NIST SQUIB=1977BOK/769
##$NIST SOURCE=TYUGLMTE
##SPECTROMETER/DATA SYSTEM=SF-4A
##XUNITS=Wavelength (nm)
##YUNITS=Logarithm epsilon
##XFACTOR=1.0
##YFACTOR=1.0
##FIRSTX=215.706
##LASTX=375.744
##FIRSTY=4.776
##MAXX=375.744
##MINX=215.706
##MAXY=4.776
##MINY=2.373
##NPOINTS=82
##$REF AUTHOR=Bokanov, A.I.; et al.
##$REF JOURNAL=Zhur. Obshchei Khim.
##$REF VOLUME=47
##$REF PAGE=769
##$REF DATE=1977
##XYPOINTS=(XY..XY)
215.706,4.776
217.706,4.737
219.706,4.708
221.706,4.681
223.706,4.649
225.706,4.611
227.706,4.567
229.706,4.518
231.706,4.466
233.706,4.413
235.706,4.363
237.706,4.316
239.706,4.275
241.706,4.238
243.706,4.205
245.706,4.176
247.706,4.147
249.706,4.116
251.706,4.081
253.706,4.038
255.706,3.986
257.706,3.925
259.719,3.856
261.719,3.791
263.719,3.716
265.719,3.660
267.719,3.639
269.719,3.651
271.719,3.692
273.719,3.747
274.891,3.785
276.166,3.820
277.815,3.853
279.815,3.897
281.815,3.937
283.815,3.971
285.815,4.000
287.815,4.025
289.815,4.046
291.815,4.064
293.815,4.080
295.815,4.094
297.815,4.109
299.815,4.123
301.815,4.138
303.815,4.154
305.744,4.170
307.744,4.190
309.744,4.209
311.744,4.223
313.744,4.232
315.744,4.236
317.744,4.235
319.744,4.227
321.744,4.214
323.744,4.195
325.744,4.171
327.744,4.143
329.744,4.109
331.744,4.072
333.744,4.030
335.744,3.985
337.744,3.936
339.744,3.883
341.744,3.827
343.744,3.768
345.744,3.705
347.744,3.638
349.744,3.567
351.744,3.492
353.744,3.412
355.744,3.328
357.744,3.240
359.744,3.147
361.744,3.051
363.744,2.951
365.744,2.850
367.744,2.747
369.744,2.645
371.744,2.547
373.744,2.455
375.744,2.373
##END=
