##TITLE=Acetonitrile
##JCAMP-DX=4.24
##DATA TYPE=UV/VIS SPECTRUM
##ORIGIN=INSTITUTE OF ENERGY PROBLEMS OF CHEMICAL PHYSICS, RAS
##OWNER=INEP CP RAS, NIST OSRD
Collection (C) 2007 copyright by the U.S. Secretary of Commerce
on behalf of the United States of America. All rights reserved.
##CAS REGISTRY NO=75-05-8
##MOLFORM=C2H3N
##MP=- 43.6
##BP=81.6
##SOURCE REFERENCE=RAS UV No. 13536
##$NIST SQUIB=1959BEC1
##$NIST SOURCE=TYUGLMTE
##SPECTROMETER/DATA SYSTEM=Bekman DK-1
##XUNITS=Wavelength (nm)
##YUNITS=Logarithm epsilon
##XFACTOR=1.0
##YFACTOR=1.0
##FIRSTX=305.82
##LASTX=399.39
##FIRSTY=2.02
##MAXX=399.39
##MINX=305.82
##MAXY=2.107
##MINY=0.968
##NPOINTS=207
##$REF AUTHOR=Becker, R.S.
##$REF JOURNAL=J. Mol. Spectroscopy
##$REF VOLUME=3
##$REF PAGE=1
##$REF DATE=1959
##XYPOINTS=(XY..XY)
192,0.87
193,0.55
194,0.24
195,0.06
196,-0.04
197,-0.23
198,-0.49
199,-0.62
200.06,-0.75
200.54,-0.82
201.02,-0.88
201.5,-0.95
201.98,-1.01
202.46,-1.03
202.94,-1.04
203.42,-1.03
203.9,-1.02
204.38,-1
204.86,-1.01
205.34,-0.97
205.82,-0.98
206.3,-1
206.78,-1.015
207.26,-1.031
207.75,-1.044
208.23,-1.054
208.71,-1.065
209.19,-1.073
209.68,-1.083
210.16,-1.092
210.64,-1.1
211.12,-1.108
211.61,-1.116
212.09,-1.124
212.57,-1.13
213.05,-1.137
213.54,-1.14
214.02,-1.145
214.5,-1.147
214.98,-1.147
215.46,-1.147
215.95,-1.146
216.43,-1.145
216.91,-1.145
217.39,-1.142
217.88,-1.14
218.36,-1.137
218.84,-1.135
219.32,-1.13
219.81,-1.128
220.29,-1.124
220.77,-1.119
221.25,-1.115
221.74,-1.112
222.22,-1.108
222.7,-1.102
223.18,-1.097
223.66,-1.089
224.15,-1.086
224.63,-1.08
225.11,-1.075
225.59,-1.069
226.08,-1.065
226.56,-1.061
227.04,-1.056
227.52,-1.049
228.01,-1.047
228.49,-1.042
228.97,-1.038
229.45,-1.033
229.94,-1.029
230.42,-1.022
230.9,-1.017
231.38,-1.011
231.86,-1.005
232.35,-1.001
232.83,-0.996
233.31,-0.989
233.79,-0.985
234.28,-0.981
234.76,-0.977
235.24,-0.971
235.72,-0.967
236.21,-0.963
236.69,-0.959
237.17,-0.955
237.65,-0.952
238.14,-0.949
238.62,-0.946
239.1,-0.942
239.58,-0.939
240.06,-0.937
240.55,-0.934
241.03,-0.932
241.51,-0.929
241.99,-0.925
242.48,-0.923
242.96,-0.921
243.44,-0.918
243.92,-0.916
244.41,-0.914
244.89,-0.911
245.37,-0.91
245.85,-0.908
246.34,-0.906
246.82,-0.904
247.3,-0.902
247.78,-0.901
248.26,-0.899
248.75,-0.898
249.23,-0.897
249.71,-0.896
250.19,-0.895
250.68,-0.895
251.16,-0.895
251.64,-0.893
252.12,-0.893
252.61,-0.893
253.09,-0.893
253.57,-0.895
254.05,-0.895
254.54,-0.896
255.02,-0.898
255.5,-0.899
255.98,-0.902
256.46,-0.904
256.95,-0.906
257.43,-0.908
257.91,-0.911
258.39,-0.914
258.88,-0.916
259.36,-0.919
259.84,-0.922
260.32,-0.926
260.81,-0.929
261.29,-0.932
261.77,-0.936
262.25,-0.94
262.74,-0.944
263.22,-0.949
263.7,-0.955
264.18,-0.96
264.66,-0.964
265.15,-0.97
265.63,-0.976
266.11,-0.98
266.59,-0.987
267.08,-0.992
267.56,-0.999
268.04,-1.005
268.52,-1.012
269.01,-1.018
269.49,-1.025
269.97,-1.034
270.45,-1.041
270.94,-1.05
271.42,-1.059
271.9,-1.068
272.38,-1.08
272.86,-1.091
273.35,-1.101
273.83,-1.113
274.31,-1.124
274.79,-1.139
275.28,-1.151
275.76,-1.163
276.24,-1.175
276.72,-1.186
277.21,-1.199
277.69,-1.212
278.17,-1.226
278.65,-1.237
279.14,-1.25
279.62,-1.263
280.1,-1.278
280.58,-1.288
281.06,-1.298
281.55,-1.313
282.03,-1.326
282.51,-1.34
282.99,-1.35
283.48,-1.365
283.96,-1.378
284.44,-1.394
284.92,-1.407
285.41,-1.421
285.89,-1.437
286.37,-1.458
286.85,-1.475
287.34,-1.49
287.82,-1.508
288.3,-1.524
288.78,-1.544
289.26,-1.564
289.75,-1.58
290.23,-1.599
290.71,-1.626
291.19,-1.643
291.68,-1.662
292.16,-1.681
292.64,-1.701
293.12,-1.727
293.61,-1.754
294.09,-1.783
294.57,-1.809
295.05,-1.836
295.54,-1.865
296.02,-1.89
296.5,-1.91
296.98,-1.93
297.46,-1.959
297.59,-1.952
297.71,-1.959
297.83,-1.967
297.95,-1.967
298.07,-1.974
298.19,-1.974
298.31,-1.982
298.43,-1.99
298.55,-1.99
298.67,-1.998
298.79,-2.007
298.91,-2.007
299.03,-2.015
299.15,-2.024
299.27,-2.024
299.39,-2.032
##END=
